(declare-fun temp909_1 () (_ BitVec 64))
(declare-fun var77203 () (_ BitVec 64))
(declare-fun var210653 () (_ BitVec 64))
(declare-fun var210913 () (_ BitVec 64))
(declare-fun temp909_2 () (_ BitVec 64))
(declare-fun var210940 () (_ BitVec 64))
(declare-fun ARGNAME_weight_NAMEEND_DIM () (_ BitVec 64))
(declare-fun temp909_3 () (_ BitVec 64))
(declare-fun temp909_4 () (_ BitVec 64))
(declare-fun var210941 () (_ BitVec 64))
(declare-fun k!0 () Bool)
(declare-fun temp909_5 () (_ BitVec 64))
(declare-fun ARGNAME_groups_NAMEEND () (_ BitVec 64))
(declare-fun var210986 () (_ BitVec 64))
(declare-fun temp909_6 () (_ BitVec 64))
(declare-fun ARGNAME_stride_NAMEEND_LEN () (_ BitVec 64))
(declare-fun ARGNAME_padding_NAMEEND_LEN () (_ BitVec 64))
(declare-fun ARGNAME_dilation_NAMEEND_LEN () (_ BitVec 64))
(declare-fun ARGNAME_output_padding_NAMEEND_LEN () (_ BitVec 64))
(declare-fun temp909_7 () (_ BitVec 64))
(declare-fun temp909_8 () (_ BitVec 64))
(declare-fun ARGNAME_padding_NAMEEND_VAL () (Array (_ BitVec 64) (_ BitVec 64)))
(declare-fun temp909_9 () (_ BitVec 64))
(declare-fun temp909_10 () (_ BitVec 64))
(declare-fun temp909_11 () (_ BitVec 64))
(declare-fun temp909_12 () (_ BitVec 64))
(declare-fun temp909_13 () (_ BitVec 64))
(declare-fun temp909_14 () (_ BitVec 64))
(declare-fun temp909_15 () (_ BitVec 64))
(declare-fun temp909_16 () (_ BitVec 64))
(declare-fun temp909_17 () (_ BitVec 64))
(declare-fun temp909_18 () (_ BitVec 64))
(declare-fun temp909_19 () (_ BitVec 64))
(declare-fun temp909_20 () (_ BitVec 64))
(declare-fun temp909_21 () (_ BitVec 64))
(declare-fun temp909_22 () (_ BitVec 64))
(declare-fun temp909_23 () (_ BitVec 64))
(declare-fun temp909_24 () (_ BitVec 64))
(declare-fun temp909_25 () (_ BitVec 64))
(declare-fun temp909_26 () (_ BitVec 64))
(declare-fun temp909_27 () (_ BitVec 64))
(declare-fun temp909_28 () (_ BitVec 64))
(declare-fun temp909_29 () (_ BitVec 64))
(declare-fun temp909_30 () (_ BitVec 64))
(declare-fun temp909_31 () (_ BitVec 64))
(declare-fun temp909_32 () (_ BitVec 64))
(declare-fun temp909_33 () (_ BitVec 64))
(declare-fun temp909_34 () (_ BitVec 64))
(declare-fun temp909_35 () (_ BitVec 64))
(declare-fun temp909_36 () (_ BitVec 64))
(declare-fun temp909_37 () (_ BitVec 64))
(declare-fun temp909_38 () (_ BitVec 64))
(declare-fun temp909_39 () (_ BitVec 64))
(declare-fun temp909_40 () (_ BitVec 64))
(declare-fun temp909_41 () (_ BitVec 64))
(declare-fun temp909_42 () (_ BitVec 64))
(declare-fun temp909_43 () (_ BitVec 64))
(declare-fun temp909_44 () (_ BitVec 64))
(declare-fun temp909_45 () (_ BitVec 64))
(declare-fun temp909_46 () (_ BitVec 64))
(declare-fun temp909_47 () (_ BitVec 64))
(declare-fun temp909_48 () (_ BitVec 64))
(declare-fun var1191714 () (_ BitVec 64))
(declare-fun temp909_49 () (_ BitVec 64))
(declare-fun temp909_50 () (_ BitVec 64))
(declare-fun temp909_51 () (_ BitVec 64))
(declare-fun ARGNAME_output_padding_NAMEEND_VAL
             ()
             (Array (_ BitVec 64) (_ BitVec 64)))
(declare-fun temp909_52 () (_ BitVec 64))
(declare-fun temp909_53 () (_ BitVec 64))
(declare-fun temp909_54 () (_ BitVec 64))
(declare-fun temp909_55 () (_ BitVec 64))
(declare-fun temp909_56 () (_ BitVec 64))
(declare-fun temp909_57 () (_ BitVec 64))
(declare-fun temp909_58 () (_ BitVec 64))
(declare-fun temp909_59 () (_ BitVec 64))
(declare-fun temp909_60 () (_ BitVec 64))
(declare-fun temp909_61 () (_ BitVec 64))
(declare-fun temp909_62 () (_ BitVec 64))
(declare-fun temp909_63 () (_ BitVec 64))
(declare-fun temp909_64 () (_ BitVec 64))
(declare-fun temp909_65 () (_ BitVec 64))
(declare-fun temp909_66 () (_ BitVec 64))
(declare-fun temp909_67 () (_ BitVec 64))
(declare-fun temp909_68 () (_ BitVec 64))
(declare-fun temp909_69 () (_ BitVec 64))
(declare-fun temp909_70 () (_ BitVec 64))
(declare-fun temp909_71 () (_ BitVec 64))
(declare-fun temp909_72 () (_ BitVec 64))
(declare-fun temp909_73 () (_ BitVec 64))
(declare-fun temp909_74 () (_ BitVec 64))
(declare-fun temp909_75 () (_ BitVec 64))
(declare-fun temp909_76 () (_ BitVec 64))
(declare-fun temp909_77 () (_ BitVec 64))
(declare-fun temp909_78 () (_ BitVec 64))
(declare-fun temp909_79 () (_ BitVec 64))
(declare-fun temp909_80 () (_ BitVec 64))
(declare-fun temp909_81 () (_ BitVec 64))
(declare-fun temp909_82 () (_ BitVec 64))
(declare-fun temp909_83 () (_ BitVec 64))
(declare-fun temp909_84 () (_ BitVec 64))
(declare-fun temp909_85 () (_ BitVec 64))
(declare-fun temp909_86 () (_ BitVec 64))
(declare-fun temp909_87 () (_ BitVec 64))
(declare-fun temp909_88 () (_ BitVec 64))
(declare-fun temp909_89 () (_ BitVec 64))
(declare-fun temp909_90 () (_ BitVec 64))
(declare-fun temp909_91 () (_ BitVec 64))
(declare-fun var1191725 () (_ BitVec 64))
(declare-fun temp909_92 () (_ BitVec 64))
(declare-fun temp909_93 () (_ BitVec 64))
(declare-fun temp909_94 () (_ BitVec 64))
(declare-fun ARGNAME_stride_NAMEEND_VAL () (Array (_ BitVec 64) (_ BitVec 64)))
(declare-fun temp909_95 () (_ BitVec 64))
(declare-fun temp909_96 () (_ BitVec 64))
(declare-fun temp909_97 () (_ BitVec 64))
(declare-fun temp909_98 () (_ BitVec 64))
(declare-fun temp909_99 () (_ BitVec 64))
(declare-fun temp909_100 () (_ BitVec 64))
(declare-fun temp909_101 () (_ BitVec 64))
(declare-fun temp909_102 () (_ BitVec 64))
(declare-fun temp909_103 () (_ BitVec 64))
(declare-fun temp909_104 () (_ BitVec 64))
(declare-fun temp909_105 () (_ BitVec 64))
(declare-fun temp909_106 () (_ BitVec 64))
(declare-fun temp909_107 () (_ BitVec 64))
(declare-fun temp909_108 () (_ BitVec 64))
(declare-fun temp909_109 () (_ BitVec 64))
(declare-fun temp909_110 () (_ BitVec 64))
(declare-fun temp909_111 () (_ BitVec 64))
(declare-fun temp909_112 () (_ BitVec 64))
(declare-fun temp909_113 () (_ BitVec 64))
(declare-fun temp909_114 () (_ BitVec 64))
(declare-fun temp909_115 () (_ BitVec 64))
(declare-fun temp909_116 () (_ BitVec 64))
(declare-fun temp909_117 () (_ BitVec 64))
(declare-fun temp909_118 () (_ BitVec 64))
(declare-fun temp909_119 () (_ BitVec 64))
(declare-fun temp909_120 () (_ BitVec 64))
(declare-fun temp909_121 () (_ BitVec 64))
(declare-fun temp909_122 () (_ BitVec 64))
(declare-fun temp909_123 () (_ BitVec 64))
(declare-fun temp909_124 () (_ BitVec 64))
(declare-fun temp909_125 () (_ BitVec 64))
(declare-fun temp909_126 () (_ BitVec 64))
(declare-fun temp909_127 () (_ BitVec 64))
(declare-fun temp909_128 () (_ BitVec 64))
(declare-fun temp909_129 () (_ BitVec 64))
(declare-fun temp909_130 () (_ BitVec 64))
(declare-fun temp909_131 () (_ BitVec 64))
(declare-fun temp909_132 () (_ BitVec 64))
(declare-fun temp909_133 () (_ BitVec 64))
(declare-fun temp909_134 () (_ BitVec 64))
(declare-fun var1191735 () (_ BitVec 64))
(declare-fun temp909_135 () (_ BitVec 64))
(declare-fun ARGNAME_input_NAMEEND_DIM () (_ BitVec 64))
(declare-fun var1191747 () (_ BitVec 64))
(declare-fun temp909_136 () (_ BitVec 64))
(declare-fun temp909_137 () (_ BitVec 64))
(declare-fun var1179826 () (_ BitVec 64))
(declare-fun temp909_138 () (_ BitVec 64))
(declare-fun temp909_139 () (_ BitVec 64))
(declare-fun ARGNAME_weight_NAMEEND_DIMSIZE
             ()
             (Array (_ BitVec 64) (_ BitVec 64)))
(declare-fun temp909_140 () (_ BitVec 64))
(declare-fun temp909_141 () (_ BitVec 64))
(declare-fun temp909_142 () (_ BitVec 64))
(declare-fun temp909_143 () (_ BitVec 64))
(declare-fun temp909_144 () (_ BitVec 64))
(declare-fun temp909_145 () (_ BitVec 64))
(declare-fun temp909_146 () (_ BitVec 64))
(declare-fun temp909_147 () (_ BitVec 64))
(declare-fun temp909_148 () (_ BitVec 64))
(declare-fun temp909_149 () (_ BitVec 64))
(declare-fun temp909_150 () (_ BitVec 64))
(declare-fun temp909_151 () (_ BitVec 64))
(declare-fun temp909_152 () (_ BitVec 64))
(declare-fun temp909_153 () (_ BitVec 64))
(declare-fun temp909_154 () (_ BitVec 64))
(declare-fun temp909_155 () (_ BitVec 64))
(declare-fun temp909_157 () (_ BitVec 64))
(declare-fun temp909_158 () (_ BitVec 64))
(declare-fun temp909_156 () (_ BitVec 64))
(declare-fun var1191780 () (_ BitVec 64))
(declare-fun temp909_159 () (_ BitVec 64))
(declare-fun temp909_160 () (_ BitVec 64))
(declare-fun temp909_162 () (_ BitVec 64))
(declare-fun temp909_163 () (_ BitVec 64))
(declare-fun temp909_161 () (_ BitVec 64))
(declare-fun var1191802 () (_ BitVec 64))
(declare-fun temp909_164 () (_ BitVec 64))
(declare-fun var1191803 () (_ BitVec 64))
(declare-fun temp909_165 () (_ BitVec 64))
(declare-fun temp909_166 () (_ BitVec 64))
(declare-fun ARGNAME_transposed_NAMEEND () (_ BitVec 64))
(declare-fun var1191823 () (_ BitVec 64))
(declare-fun temp909_167 () (_ BitVec 64))
(declare-fun temp909_168 () (_ BitVec 64))
(declare-fun var1180714 () (_ BitVec 64))
(declare-fun temp909_169 () (_ BitVec 64))
(declare-fun temp909_170 () (_ BitVec 64))
(declare-fun ARGNAME_input_NAMEEND_DIMSIZE
             ()
             (Array (_ BitVec 64) (_ BitVec 64)))
(declare-fun temp909_171 () (_ BitVec 64))
(declare-fun temp909_172 () (_ BitVec 64))
(declare-fun temp909_173 () (_ BitVec 64))
(declare-fun temp909_174 () (_ BitVec 64))
(declare-fun temp909_175 () (_ BitVec 64))
(declare-fun temp909_176 () (_ BitVec 64))
(declare-fun temp909_177 () (_ BitVec 64))
(declare-fun temp909_178 () (_ BitVec 64))
(declare-fun temp909_179 () (_ BitVec 64))
(declare-fun temp909_180 () (_ BitVec 64))
(declare-fun temp909_181 () (_ BitVec 64))
(declare-fun temp909_182 () (_ BitVec 64))
(declare-fun temp909_183 () (_ BitVec 64))
(declare-fun temp909_184 () (_ BitVec 64))
(declare-fun temp909_185 () (_ BitVec 64))
(declare-fun temp909_186 () (_ BitVec 64))
(declare-fun temp909_187 () (_ BitVec 64))
(declare-fun temp909_188 () (_ BitVec 64))
(declare-fun temp909_189 () (_ BitVec 64))
(declare-fun var1191831 () (_ BitVec 64))
(declare-fun temp909_190 () (_ BitVec 64))
(declare-fun temp909_192 () (_ BitVec 64))
(declare-fun temp909_193 () (_ BitVec 64))
(declare-fun temp909_191 () (_ BitVec 64))
(declare-fun var1191835 () (_ BitVec 64))
(declare-fun var1191836 () (_ BitVec 64))
(declare-fun temp909_194 () (_ BitVec 64))
(declare-fun temp909_195 () (_ BitVec 64))
(declare-fun temp909_197 () (_ BitVec 64))
(declare-fun temp909_198 () (_ BitVec 64))
(declare-fun temp909_196 () (_ BitVec 64))
(declare-fun temp909_199 () (_ BitVec 64))
(declare-fun var1586025 () (_ BitVec 64))
(declare-fun var1586034 () (_ BitVec 64))
(declare-fun var1717312 () (_ BitVec 64))
(declare-fun temp909_200 () (_ BitVec 64))
(declare-fun var1191993 () (_ BitVec 64))
(declare-fun temp909_201 () (_ BitVec 64))
(declare-fun var2700303 () (_ BitVec 64))
(declare-fun temp909_202 () (_ BitVec 64))
(declare-fun var2962447 () (_ BitVec 64))
(declare-fun temp909_203 () (_ BitVec 64))
(declare-fun var211058 () (_ BitVec 64))
(declare-fun temp909_204 () (_ BitVec 64))
(declare-fun temp909_205 () (_ BitVec 64))
(declare-fun var211188 () (_ BitVec 64))
(declare-fun var3879401 () (_ BitVec 64))
(declare-fun temp909_206 () (_ BitVec 64))
(declare-fun var3866802 () (_ BitVec 64))
(declare-fun temp909_207 () (_ BitVec 64))
(declare-fun temp909_208 () (_ BitVec 64))
(declare-fun temp909_209 () (_ BitVec 64))
(declare-fun var3879420 () (_ BitVec 64))
(declare-fun temp909_210 () (_ BitVec 64))
(declare-fun var3879421 () (_ BitVec 64))
(declare-fun temp909_211 () (_ BitVec 64))
(declare-fun temp909_212 () (_ BitVec 64))
(declare-fun var4079423 () (_ BitVec 64))
(declare-fun var4079425 () (_ BitVec 64))
(declare-fun var4079382 () (_ BitVec 64))
(declare-fun var211201 () (_ BitVec 64))
(declare-fun temp909_213 () (_ BitVec 64))
(declare-fun var4208259 () (_ BitVec 64))
(declare-fun var4208261 () (_ BitVec 64))
(declare-fun var4273804 () (_ BitVec 64))
(declare-fun var4273805 () (_ BitVec 64))
(declare-fun var4273818 () (_ BitVec 64))
(declare-fun var4273820 () (_ BitVec 64))
(declare-fun temp909_214 () (_ BitVec 64))
(declare-fun var4273845 () (_ BitVec 64))
(declare-fun var4273847 () (_ BitVec 64))
(declare-fun var4394835 () (_ BitVec 64))
(declare-fun var4862352 () (_ BitVec 64))
(declare-fun var5124496 () (_ BitVec 64))
(declare-fun temp909_215 () (_ BitVec 64))
(assert (= temp909_1 #x0000000000000001))
(assert (= var77203 temp909_1))
(assert (= var210653 var77203))
(assert (= var210913 var210653))
(assert (= temp909_2 #xfffffffffffffffe))
(assert (= var210940 (bvadd ARGNAME_weight_NAMEEND_DIM temp909_2)))
(assert (= temp909_3 #x0000000000000003))
(assert (= var210941
   (ite (bvslt ARGNAME_weight_NAMEEND_DIM temp909_3)
        #x0000000000000001
        #x0000000000000000)))
(assert (= temp909_4 #x0000000000000000))
(assert (= var210941 temp909_4))
(assert (= temp909_5 #x0000000000000001))
(assert (= var210986
   (ite (bvslt ARGNAME_groups_NAMEEND temp909_5)
        #x0000000000000001
        #x0000000000000000)))
(assert (= temp909_6 #x0000000000000000))
(assert (= var210986 temp909_6))
(assert (= ARGNAME_stride_NAMEEND_LEN var210940))
(assert (= ARGNAME_padding_NAMEEND_LEN var210940))
(assert (= ARGNAME_dilation_NAMEEND_LEN var210940))
(assert (= ARGNAME_output_padding_NAMEEND_LEN var210940))
(assert (= temp909_7 #x0000000000000000))
(assert (= temp909_8 temp909_7))
(assert (= temp909_9 (select ARGNAME_padding_NAMEEND_VAL temp909_8)))
(assert (= temp909_10 #x0000000000000001))
(assert (= temp909_11 temp909_10))
(assert (= temp909_12 (select ARGNAME_padding_NAMEEND_VAL temp909_11)))
(assert (= temp909_13 #x0000000000000002))
(assert (= temp909_14 temp909_13))
(assert (= temp909_15 (select ARGNAME_padding_NAMEEND_VAL temp909_14)))
(assert (= temp909_16 #x0000000000000003))
(assert (= temp909_17 temp909_16))
(assert (= temp909_18 (select ARGNAME_padding_NAMEEND_VAL temp909_17)))
(assert (= temp909_19 #x0000000000000004))
(assert (= temp909_20 temp909_19))
(assert (= temp909_21 (select ARGNAME_padding_NAMEEND_VAL temp909_20)))
(assert (= temp909_22 #x0000000000000005))
(assert (= temp909_23 temp909_22))
(assert (= temp909_24 (select ARGNAME_padding_NAMEEND_VAL temp909_23)))
(assert (= temp909_25 #x0000000000000000))
(assert (= temp909_26 #x0000000000000000))
(assert (= temp909_27 temp909_26))
(assert (= temp909_28 (select ARGNAME_padding_NAMEEND_VAL temp909_27)))
(assert (= temp909_29 #x0000000000000000))
(assert (= temp909_30 #x0000000000000001))
(assert (= temp909_31 temp909_30))
(assert (= temp909_32 (select ARGNAME_padding_NAMEEND_VAL temp909_31)))
(assert (= temp909_33 #x0000000000000000))
(assert (= temp909_34 #x0000000000000002))
(assert (= temp909_35 temp909_34))
(assert (= temp909_36 (select ARGNAME_padding_NAMEEND_VAL temp909_35)))
(assert (= temp909_37 #x0000000000000000))
(assert (= temp909_38 #x0000000000000003))
(assert (= temp909_39 temp909_38))
(assert (= temp909_40 (select ARGNAME_padding_NAMEEND_VAL temp909_39)))
(assert (= temp909_41 #x0000000000000000))
(assert (= temp909_42 #x0000000000000004))
(assert (= temp909_43 temp909_42))
(assert (= temp909_44 (select ARGNAME_padding_NAMEEND_VAL temp909_43)))
(assert (= temp909_45 #x0000000000000000))
(assert (= temp909_46 #x0000000000000005))
(assert (= temp909_47 temp909_46))
(assert (= temp909_48 (select ARGNAME_padding_NAMEEND_VAL temp909_47)))
(assert (= var1191714
   (ite (and true
             (bvslt temp909_28 temp909_25)
             (bvslt temp909_32 temp909_29)
             (bvslt temp909_36 temp909_33)
             (bvslt temp909_40 temp909_37)
             (bvslt temp909_44 temp909_41)
             (bvslt temp909_48 temp909_45))
        #x0000000000000001
        #x0000000000000000)))
(assert (= temp909_49 #x0000000000000000))
(assert (= var1191714 temp909_49))
(assert (= temp909_50 #x0000000000000000))
(assert (= temp909_51 temp909_50))
(assert (= temp909_52 (select ARGNAME_output_padding_NAMEEND_VAL temp909_51)))
(assert (= temp909_53 #x0000000000000001))
(assert (= temp909_54 temp909_53))
(assert (= temp909_55 (select ARGNAME_output_padding_NAMEEND_VAL temp909_54)))
(assert (= temp909_56 #x0000000000000002))
(assert (= temp909_57 temp909_56))
(assert (= temp909_58 (select ARGNAME_output_padding_NAMEEND_VAL temp909_57)))
(assert (= temp909_59 #x0000000000000003))
(assert (= temp909_60 temp909_59))
(assert (= temp909_61 (select ARGNAME_output_padding_NAMEEND_VAL temp909_60)))
(assert (= temp909_62 #x0000000000000004))
(assert (= temp909_63 temp909_62))
(assert (= temp909_64 (select ARGNAME_output_padding_NAMEEND_VAL temp909_63)))
(assert (= temp909_65 #x0000000000000005))
(assert (= temp909_66 temp909_65))
(assert (= temp909_67 (select ARGNAME_output_padding_NAMEEND_VAL temp909_66)))
(assert (= temp909_68 #x0000000000000000))
(assert (= temp909_69 #x0000000000000000))
(assert (= temp909_70 temp909_69))
(assert (= temp909_71 (select ARGNAME_output_padding_NAMEEND_VAL temp909_70)))
(assert (= temp909_72 #x0000000000000000))
(assert (= temp909_73 #x0000000000000001))
(assert (= temp909_74 temp909_73))
(assert (= temp909_75 (select ARGNAME_output_padding_NAMEEND_VAL temp909_74)))
(assert (= temp909_76 #x0000000000000000))
(assert (= temp909_77 #x0000000000000002))
(assert (= temp909_78 temp909_77))
(assert (= temp909_79 (select ARGNAME_output_padding_NAMEEND_VAL temp909_78)))
(assert (= temp909_80 #x0000000000000000))
(assert (= temp909_81 #x0000000000000003))
(assert (= temp909_82 temp909_81))
(assert (= temp909_83 (select ARGNAME_output_padding_NAMEEND_VAL temp909_82)))
(assert (= temp909_84 #x0000000000000000))
(assert (= temp909_85 #x0000000000000004))
(assert (= temp909_86 temp909_85))
(assert (= temp909_87 (select ARGNAME_output_padding_NAMEEND_VAL temp909_86)))
(assert (= temp909_88 #x0000000000000000))
(assert (= temp909_89 #x0000000000000005))
(assert (= temp909_90 temp909_89))
(assert (= temp909_91 (select ARGNAME_output_padding_NAMEEND_VAL temp909_90)))
(assert (= var1191725
   (ite (and true
             (bvslt temp909_71 temp909_68)
             (bvslt temp909_75 temp909_72)
             (bvslt temp909_79 temp909_76)
             (bvslt temp909_83 temp909_80)
             (bvslt temp909_87 temp909_84)
             (bvslt temp909_91 temp909_88))
        #x0000000000000001
        #x0000000000000000)))
(assert (= temp909_92 #x0000000000000000))
(assert (= var1191725 temp909_92))
(assert (= temp909_93 #x0000000000000000))
(assert (= temp909_94 temp909_93))
(assert (= temp909_95 (select ARGNAME_stride_NAMEEND_VAL temp909_94)))
(assert (= temp909_96 #x0000000000000001))
(assert (= temp909_97 temp909_96))
(assert (= temp909_98 (select ARGNAME_stride_NAMEEND_VAL temp909_97)))
(assert (= temp909_99 #x0000000000000002))
(assert (= temp909_100 temp909_99))
(assert (= temp909_101 (select ARGNAME_stride_NAMEEND_VAL temp909_100)))
(assert (= temp909_102 #x0000000000000003))
(assert (= temp909_103 temp909_102))
(assert (= temp909_104 (select ARGNAME_stride_NAMEEND_VAL temp909_103)))
(assert (= temp909_105 #x0000000000000004))
(assert (= temp909_106 temp909_105))
(assert (= temp909_107 (select ARGNAME_stride_NAMEEND_VAL temp909_106)))
(assert (= temp909_108 #x0000000000000005))
(assert (= temp909_109 temp909_108))
(assert (= temp909_110 (select ARGNAME_stride_NAMEEND_VAL temp909_109)))
(assert (= temp909_111 #x0000000000000000))
(assert (= temp909_112 #x0000000000000000))
(assert (= temp909_113 temp909_112))
(assert (= temp909_114 (select ARGNAME_stride_NAMEEND_VAL temp909_113)))
(assert (= temp909_115 #x0000000000000000))
(assert (= temp909_116 #x0000000000000001))
(assert (= temp909_117 temp909_116))
(assert (= temp909_118 (select ARGNAME_stride_NAMEEND_VAL temp909_117)))
(assert (= temp909_119 #x0000000000000000))
(assert (= temp909_120 #x0000000000000002))
(assert (= temp909_121 temp909_120))
(assert (= temp909_122 (select ARGNAME_stride_NAMEEND_VAL temp909_121)))
(assert (= temp909_123 #x0000000000000000))
(assert (= temp909_124 #x0000000000000003))
(assert (= temp909_125 temp909_124))
(assert (= temp909_126 (select ARGNAME_stride_NAMEEND_VAL temp909_125)))
(assert (= temp909_127 #x0000000000000000))
(assert (= temp909_128 #x0000000000000004))
(assert (= temp909_129 temp909_128))
(assert (= temp909_130 (select ARGNAME_stride_NAMEEND_VAL temp909_129)))
(assert (= temp909_131 #x0000000000000000))
(assert (= temp909_132 #x0000000000000005))
(assert (= temp909_133 temp909_132))
(assert (= temp909_134 (select ARGNAME_stride_NAMEEND_VAL temp909_133)))
(assert (= var1191735
   (ite (and true
             (bvsle temp909_114 temp909_111)
             (bvsle temp909_118 temp909_115)
             (bvsle temp909_122 temp909_119)
             (bvsle temp909_126 temp909_123)
             (bvsle temp909_130 temp909_127)
             (bvsle temp909_134 temp909_131))
        #x0000000000000001
        #x0000000000000000)))
(assert (= temp909_135 #x0000000000000000))
(assert (= var1191735 temp909_135))
(assert (= var1191747
   (ite (= ARGNAME_weight_NAMEEND_DIM ARGNAME_input_NAMEEND_DIM)
        #x0000000000000001
        #x0000000000000000)))
(assert (= temp909_136 #x0000000000000001))
(assert (= var1191747 temp909_136))
(assert (= temp909_137 #x0000000000000000))
(assert (= var1179826 temp909_137))
(assert (= temp909_138 #x0000000000000000))
(assert (= temp909_139 temp909_138))
(assert (= temp909_140 (select ARGNAME_weight_NAMEEND_DIMSIZE temp909_139)))
(assert (= temp909_141 #x0000000000000001))
(assert (= temp909_142 temp909_141))
(assert (= temp909_143 (select ARGNAME_weight_NAMEEND_DIMSIZE temp909_142)))
(assert (= temp909_144 #x0000000000000002))
(assert (= temp909_145 temp909_144))
(assert (= temp909_146 (select ARGNAME_weight_NAMEEND_DIMSIZE temp909_145)))
(assert (= temp909_147 #x0000000000000003))
(assert (= temp909_148 temp909_147))
(assert (= temp909_149 (select ARGNAME_weight_NAMEEND_DIMSIZE temp909_148)))
(assert (= temp909_150 #x0000000000000004))
(assert (= temp909_151 temp909_150))
(assert (= temp909_152 (select ARGNAME_weight_NAMEEND_DIMSIZE temp909_151)))
(assert (= temp909_153 #x0000000000000005))
(assert (= temp909_154 temp909_153))
(assert (= temp909_155 (select ARGNAME_weight_NAMEEND_DIMSIZE temp909_154)))
(assert (= temp909_157 var1179826))
(assert (= temp909_158 (select ARGNAME_weight_NAMEEND_DIMSIZE temp909_157)))
(assert (= temp909_156 temp909_158))
(assert (= var1191780
   (ite (bvslt temp909_156 ARGNAME_groups_NAMEEND)
        #x0000000000000001
        #x0000000000000000)))
(assert (= temp909_159 #x0000000000000000))
(assert (= var1191780 temp909_159))
(assert (= temp909_160 #x0000000000000000))
(assert (= var1179826 temp909_160))
(assert (= temp909_162 var1179826))
(assert (= temp909_163 (select ARGNAME_weight_NAMEEND_DIMSIZE temp909_162)))
(assert (= temp909_161 temp909_163))
(assert (= var1191802 (bvsmod temp909_161 ARGNAME_groups_NAMEEND)))
(assert (= temp909_164 #x0000000000000000))
(assert (= var1191803
   (ite (= var1191802 temp909_164) #x0000000000000001 #x0000000000000000)))
(assert (= temp909_165 #x0000000000000001))
(assert (= var1191803 temp909_165))
(assert (= temp909_166 #x0000000000000000))
(assert (= var1191823
   (ite (= ARGNAME_transposed_NAMEEND temp909_166)
        #x0000000000000001
        #x0000000000000000)))
(assert (= temp909_167 #x0000000000000001))
(assert (= var1191823 temp909_167))
(assert (= temp909_168 #x0000000000000001))
(assert (= var1180714 temp909_168))
(assert (= temp909_169 #x0000000000000000))
(assert (= temp909_170 temp909_169))
(assert (= temp909_171 (select ARGNAME_input_NAMEEND_DIMSIZE temp909_170)))
(assert (= temp909_172 #x0000000000000001))
(assert (= temp909_173 temp909_172))
(assert (= temp909_174 (select ARGNAME_input_NAMEEND_DIMSIZE temp909_173)))
(assert (= temp909_175 #x0000000000000002))
(assert (= temp909_176 temp909_175))
(assert (= temp909_177 (select ARGNAME_input_NAMEEND_DIMSIZE temp909_176)))
(assert (= temp909_178 #x0000000000000003))
(assert (= temp909_179 temp909_178))
(assert (= temp909_180 (select ARGNAME_input_NAMEEND_DIMSIZE temp909_179)))
(assert (= temp909_181 #x0000000000000004))
(assert (= temp909_182 temp909_181))
(assert (= temp909_183 (select ARGNAME_input_NAMEEND_DIMSIZE temp909_182)))
(assert (= temp909_184 #x0000000000000005))
(assert (= temp909_185 temp909_184))
(assert (= temp909_186 (select ARGNAME_input_NAMEEND_DIMSIZE temp909_185)))
(assert (= temp909_187 #x0000000000000000))
(assert (= temp909_188
   (ite (bvslt var1180714 temp909_187)
        (bvadd ARGNAME_input_NAMEEND_DIM var1180714)
        var1180714)))
(assert (= temp909_189 (select ARGNAME_input_NAMEEND_DIMSIZE temp909_188)))
(assert (= var1191831 temp909_189))
(assert (bvslt (ite (bvslt var1180714 temp909_187)
            (bvadd ARGNAME_input_NAMEEND_DIM var1180714)
            var1180714)
       ARGNAME_input_NAMEEND_DIM))
(assert (= temp909_190 #x0000000000000001))
(assert (= var1180714 temp909_190))
(assert (= temp909_192 var1180714))
(assert (= temp909_193 (select ARGNAME_weight_NAMEEND_DIMSIZE temp909_192)))
(assert (= temp909_191 temp909_193))
(assert (= var1191835 (bvmul ARGNAME_groups_NAMEEND temp909_191)))
(assert (= var1191836
   (ite (= var1191831 var1191835) #x0000000000000001 #x0000000000000000)))
(assert (= temp909_194 #x0000000000000001))
(assert (= var1191836 temp909_194))
(assert (= temp909_195 #x0000000000000000))
(assert (= var1179826 temp909_195))
(assert (= temp909_197 var1179826))
(assert (= temp909_198 (select ARGNAME_weight_NAMEEND_DIMSIZE temp909_197)))
(assert (= temp909_196 temp909_198))
(assert (= temp909_199 #x0000000000000002))
(assert (= var1586025 temp909_199))
(assert (= var1586034 var1586025))
(assert (= var1717312 var1586034))
(assert (= temp909_200 #x0000000000000001))
(assert (= var1191993 temp909_200))
(assert (= temp909_201 #x0000000000000001))
(assert (= var2700303 temp909_201))
(assert (= temp909_202 #x0000000000000001))
(assert (= var2962447 temp909_202))
(assert (= temp909_203 #x0000000000000003))
(assert (= var211058
   (ite (= ARGNAME_weight_NAMEEND_DIM temp909_203)
        #x0000000000000001
        #x0000000000000000)))
(assert (= temp909_204 #x0000000000000001))
(assert (= var211058 temp909_204))
(assert (= temp909_205 #x0000000000000001))
(assert (= var211188 temp909_205))
(assert (= var3879401 var211188))
(assert (= temp909_206 #x0000000000000000))
(assert (= var3866802 temp909_206))
(assert (= temp909_207 #x0000000000000000))
(assert (= temp909_208
   (ite (bvslt var3866802 temp909_207)
        (bvadd ARGNAME_input_NAMEEND_DIM var3866802)
        var3866802)))
(assert (= temp909_209 (select ARGNAME_input_NAMEEND_DIMSIZE temp909_208)))
(assert (= var3879420 temp909_209))
(assert (bvslt (ite (bvslt var3866802 temp909_207)
            (bvadd ARGNAME_input_NAMEEND_DIM var3866802)
            var3866802)
       ARGNAME_input_NAMEEND_DIM))
(assert (= temp909_210 #x0000000000000000))
(assert (= var3879421
   (ite (= var3879420 temp909_210) #x0000000000000001 #x0000000000000000)))
(assert (= temp909_211 #x0000000000000001))
(assert (= var3879421 temp909_211))
(assert (= temp909_212 #x0000000000000000))
(assert (= var4079423 temp909_212))
(assert (= var4079425 var4079423))
(assert (= var4079382 var4079425))
(assert (= var211201 var4079382))
(assert (= temp909_213 #x0000000000000002))
(assert (= var4208259 temp909_213))
(assert (= var4208261 (bvsub ARGNAME_weight_NAMEEND_DIM var4208259)))
(assert (= var4273804 var4208259))
(assert (= var4273805 var4208261))
(assert (= var4273818 (bvadd var4273805 var4273804)))
(assert (= var4273820
   (ite (bvsgt var4273818 ARGNAME_weight_NAMEEND_DIM)
        #x0000000000000001
        #x0000000000000000)))
(assert (= temp909_214 #x0000000000000000))
(assert (= var4273820 temp909_214))
(assert (= var4273845 var4273804))
(assert (= var4273847 var4273805))
(assert (= var4394835 var4273847))
(assert (= var4862352 var211201))
(assert (= var5124496 var211201))
(assert (= temp909_215 #x0000000000000001))
(assert (= var211058 temp909_215))
(model-add temp909_1 () (_ BitVec 64) #x0000000000000001)
(model-add var77203 () (_ BitVec 64) #x0000000000000001)
(model-add var210653 () (_ BitVec 64) #x0000000000000001)
(model-add var210913 () (_ BitVec 64) #x0000000000000001)
(model-add temp909_2 () (_ BitVec 64) #xfffffffffffffffe)
(model-add var210940
           ()
           (_ BitVec 64)
           (bvadd #xfffffffffffffffe ARGNAME_weight_NAMEEND_DIM))
(model-add temp909_3 () (_ BitVec 64) #x0000000000000003)
(model-add temp909_4 () (_ BitVec 64) #x0000000000000000)
(model-add var210941 () (_ BitVec 64) #x0000000000000000)
(model-del k!0)
(model-add ARGNAME_weight_NAMEEND_DIM
           ()
           (_ BitVec 64)
           (ite (or k!0 (= #x0000000000000003 #x8000000000000000))
                #x0000000000000003
                (bvsub #x0000000000000003 #x0000000000000001)))




